check/benchmarks/mps_files/ex_9-7.mps
NAME          APPLIED_INTEGER_PROGRAMMING_9_7

OBJSENSE
 MAX

ROWS
 N  OBJ
 L  ROW1
 L  ROW2
 L  ROW3

COLUMNS
    X1        OBJ       4
    X1        ROW1      1
    X1        ROW2      2
    X1        ROW3     -3
    X2        OBJ       3
    X2        ROW1      2
    X2        ROW2     -1
    X2        ROW3      2
    X3        OBJ       1
    X3        ROW1      3
    X3        ROW2      2
    X3        ROW3      1
    X4        OBJ       7
    X4        ROW1      1
    X4        ROW2      2
    X4        ROW3     -1
    X5        OBJ       6
    X5        ROW1     -3
    X5        ROW2      1
    X5        ROW3      2

RHS
    RHS1      ROW1      9
    RHS1      ROW2     10
    RHS1      ROW3     11

BOUNDS
 LO BOUND1    X1        0
 LO BOUND1    X2        0
 LO BOUND1    X3        0
 LO BOUND1    X4        0
 LO BOUND1    X5        0

ENDATA