check/problems/lp_files/ex_9-7.lp
Maximize
 OBJ: 4.0 X1 + 3.0 X2 + 1.0 X3 + 7.0 X4 + 6.0 X5
Subject To
 ROW1: X1 + 2.0 X2 + 3.0 X3 + X4 - 3.0 X5 <= 90.
 ROW2: 2.0 X1 - X2 + 2.0 X3 + 2.0 X4 + X5 <= 10.0
 ROW3: -3.0 X1 + 2.0 X2 + X3 - X4 + 2.0 X5 <= 11.0
Bounds
 0 <= X1
 0 <= X2
 0 <= X3
 0 <= X4
 0 <= X5
End
